assets/logs/11_8x8_clingo/11_8x8_clingo.solution.log

---------------------------------
| 29| 35| 45|  8| 30|  4| 26|  0|
---------------------------------
| 47| 41| 31| 18|  0| 10| 32|  2|
---------------------------------
| 33| 27| 37| 43|  6| 28|  0| 24|
---------------------------------
| 39| 49| 16| 25| 20| 34| 12| 21|
---------------------------------
| 58| 11|  0| 36| 14| 23| 22| 44|
---------------------------------
| 51| 57| 56| 13| 52| 46| 19|  1|
---------------------------------
|  9|  0| 38| 55|  5| 15| 42| 48|
---------------------------------
| 59| 53|  7| 54| 40| 50|  3| 17|
---------------------------------

| n = 8 | k = 4 | coverage = 62, 96.875%
 Time 300.0
 Name 11_8x8_clingo

