assets/logs/11_8x8_clingo/11_8x8_clingo.log
clingo version 5.4.0
Reading from ...ets/logs/11_8x8_clingo/knights_tour.lp ...
Solving...
Answer: 1
occ(1,3,7) occ(1,2,5) occ(1,5,3) occ(1,7,2) occ(2,6,8) occ(3,2,8) coverage(6)
Optimization: -6
Answer: 2
occ(1,3,7) occ(1,2,5) occ(1,5,3) occ(1,7,2) occ(2,6,8) occ(3,2,8) coverage(8) occ(5,1,6) occ(7,3,5) occ(6,7,5) occ(4,8,7)
Optimization: -8
Answer: 3
occ(1,3,7) occ(1,2,5) occ(1,5,3) occ(1,7,2) occ(2,6,8) occ(3,2,8) coverage(20) occ(13,1,4) occ(16,1,2) occ(17,1,6) occ(23,1,3) occ(11,2,2) occ(19,2,4) occ(25,2,1) occ(14,3,1) occ(15,3,5) occ(18,3,3) occ(21,3,2) occ(5,4,7) occ(9,4,3) occ(27,4,2) occ(7,5,5) occ(12,5,2) occ(37,5,8) occ(29,6,1) occ(6,7,5) occ(10,7,1) occ(31,7,3) occ(35,7,7) occ(4,8,7) occ(8,8,3) occ(33,8,5)
Optimization: -20
Answer: 4
occ(1,3,7) occ(1,2,5) occ(1,5,3) occ(1,7,2) occ(2,6,8) occ(3,2,8) coverage(22) occ(13,1,4) occ(16,1,2) occ(17,1,6) occ(23,1,3) occ(11,2,2) occ(19,2,4) occ(25,2,1) occ(14,3,1) occ(15,3,5) occ(18,3,3) occ(21,3,2) occ(5,4,7) occ(9,4,3) occ(20,4,1) occ(27,4,2) occ(7,5,5) occ(12,5,2) occ(37,5,8) occ(29,6,1) occ(6,7,5) occ(10,7,1) occ(31,7,3) occ(35,7,7) occ(4,8,7) occ(8,8,3) occ(33,8,5)
Optimization: -22
Answer: 5
occ(1,3,7) occ(1,2,5) occ(1,5,3) occ(1,7,2) occ(2,6,8) occ(3,2,8) coverage(24) occ(13,1,4) occ(16,1,2) occ(17,1,6) occ(23,1,3) occ(11,2,2) occ(19,2,4) occ(25,2,1) occ(14,3,1) occ(15,3,5) occ(18,3,3) occ(21,3,2) occ(5,4,7) occ(9,4,3) occ(20,4,1) occ(27,4,2) occ(7,5,5) occ(12,5,2) occ(37,5,8) occ(22,6,2) occ(29,6,1) occ(6,7,5) occ(10,7,1) occ(31,7,3) occ(35,7,7) occ(4,8,7) occ(8,8,3) occ(33,8,5)
Optimization: -24
Answer: 6
occ(1,3,7) occ(1,2,5) occ(1,5,3) occ(1,7,2) occ(2,6,8) occ(3,2,8) coverage(26) occ(13,1,4) occ(16,1,2) occ(17,1,6) occ(23,1,3) occ(11,2,2) occ(19,2,4) occ(25,2,1) occ(14,3,1) occ(15,3,5) occ(18,3,3) occ(21,3,2) occ(5,4,7) occ(9,4,3) occ(20,4,1) occ(27,4,2) occ(7,5,5) occ(12,5,2) occ(37,5,8) occ(22,6,2) occ(29,6,1) occ(6,7,5) occ(10,7,1) occ(31,7,3) occ(35,7,7) occ(4,8,7) occ(8,8,3) occ(24,8,1) occ(33,8,5)
Optimization: -26
Answer: 7
occ(1,3,7) occ(1,2,5) occ(1,5,3) occ(1,7,2) occ(2,6,8) occ(3,2,8) coverage(28) occ(13,1,4) occ(16,1,2) occ(17,1,6) occ(23,1,3) occ(11,2,2) occ(19,2,4) occ(25,2,1) occ(14,3,1) occ(15,3,5) occ(18,3,3) occ(21,3,2) occ(5,4,7) occ(9,4,3) occ(20,4,1) occ(27,4,2) occ(7,5,5) occ(12,5,2) occ(37,5,8) occ(22,6,2) occ(29,6,1) occ(6,7,5) occ(10,7,1) occ(24,7,4) occ(31,7,3) occ(35,7,7) occ(4,8,7) occ(8,8,3) occ(26,8,2) occ(33,8,5)
Optimization: -28
Answer: 8
occ(1,3,7) occ(1,2,5) occ(1,5,3) occ(1,7,2) occ(2,6,8) occ(3,2,8) coverage(30) occ(13,1,4) occ(16,1,2) occ(17,1,6) occ(23,1,3) occ(11,2,2) occ(19,2,4) occ(25,2,1) occ(14,3,1) occ(15,3,5) occ(18,3,3) occ(21,3,2) occ(28,3,8) occ(5,4,7) occ(9,4,3) occ(20,4,5) occ(27,4,2) occ(7,5,5) occ(12,5,2) occ(26,5,7) occ(37,5,8) occ(22,6,6) occ(29,6,1) occ(6,7,5) occ(10,7,1) occ(24,7,8) occ(31,7,3) occ(35,7,7) occ(4,8,7) occ(8,8,3) occ(33,8,5)
Optimization: -30
Answer: 9
occ(1,3,7) occ(1,2,5) occ(1,5,3) occ(1,7,2) occ(2,6,8) occ(3,2,8) coverage(32) occ(13,1,4) occ(16,1,2) occ(17,1,6) occ(23,1,3) occ(30,1,7) occ(11,2,2) occ(19,2,4) occ(25,2,1) occ(14,3,1) occ(15,3,5) occ(18,3,3) occ(21,3,2) occ(28,3,8) occ(5,4,7) occ(9,4,3) occ(20,4,5) occ(27,4,2) occ(7,5,5) occ(12,5,2) occ(26,5,7) occ(37,5,8) occ(22,6,6) occ(29,6,1) occ(6,7,5) occ(10,7,1) occ(24,7,8) occ(31,7,3) occ(35,7,7) occ(4,8,7) occ(8,8,3) occ(33,8,5)
Optimization: -32
Answer: 10
occ(1,3,7) occ(1,2,5) occ(1,5,3) occ(1,7,2) occ(2,6,8) occ(3,2,8) coverage(34) occ(13,1,4) occ(16,1,2) occ(17,1,6) occ(23,1,3) occ(11,2,2) occ(19,2,4) occ(25,2,1) occ(32,2,7) occ(14,3,1) occ(15,3,5) occ(18,3,3) occ(21,3,2) occ(28,3,8) occ(5,4,7) occ(9,4,3) occ(20,4,5) occ(27,4,2) occ(30,4,6) occ(7,5,5) occ(12,5,2) occ(26,5,7) occ(37,5,8) occ(22,6,6) occ(29,6,1) occ(6,7,5) occ(10,7,1) occ(24,7,8) occ(31,7,3) occ(35,7,7) occ(4,8,7) occ(8,8,3) occ(33,8,5)
Optimization: -34
Answer: 11
occ(1,3,7) occ(1,2,5) occ(1,5,3) occ(1,7,2) occ(2,6,8) occ(3,2,8) coverage(36) occ(13,1,4) occ(16,1,2) occ(17,1,6) occ(23,1,3) occ(11,2,2) occ(19,2,4) occ(25,2,1) occ(14,3,1) occ(15,3,5) occ(18,3,3) occ(21,3,2) occ(5,4,7) occ(9,4,3) occ(20,4,5) occ(27,4,2) occ(7,5,5) occ(12,5,2) occ(22,5,7) occ(37,5,8) occ(28,6,7) occ(29,6,1) occ(6,7,5) occ(10,7,1) occ(24,7,8) occ(31,7,3) occ(32,7,6) occ(35,7,7) occ(4,8,7) occ(8,8,3) occ(26,8,6) occ(30,8,8) occ(33,8,5) occ(34,8,4)
Optimization: -36
Answer: 12
occ(1,3,7) occ(1,2,5) occ(1,5,3) occ(1,7,2) occ(2,6,8) occ(3,2,8) coverage(38) occ(13,1,4) occ(16,1,2) occ(17,1,6) occ(23,1,3) occ(11,2,2) occ(19,2,4) occ(25,2,1) occ(14,3,1) occ(15,3,5) occ(18,3,3) occ(21,3,2) occ(5,4,7) occ(9,4,3) occ(20,4,5) occ(27,4,2) occ(7,5,5) occ(12,5,2) occ(22,5,7) occ(37,5,8) occ(8,6,3) occ(28,6,7) occ(29,6,1) occ(34,6,4) occ(6,7,5) occ(10,7,1) occ(24,7,8) occ(31,7,3) occ(32,7,6) occ(35,7,7) occ(4,8,7) occ(26,8,6) occ(30,8,8) occ(33,8,5) occ(36,8,3)
Optimization: -38
Answer: 13
occ(1,3,7) occ(1,2,5) occ(1,5,3) occ(1,7,2) occ(2,6,8) occ(3,2,8) coverage(39) occ(13,1,4) occ(16,1,2) occ(17,1,6) occ(23,1,3) occ(42,1,5) occ(11,2,2) occ(19,2,4) occ(25,2,1) occ(40,2,7) occ(14,3,1) occ(15,3,5) occ(18,3,3) occ(21,3,2) occ(44,3,4) occ(5,4,7) occ(9,4,3) occ(20,4,5) occ(27,4,2) occ(38,4,8) occ(46,4,6) occ(7,5,5) occ(12,5,2) occ(22,5,7) occ(36,5,6) occ(37,5,8) occ(48,5,4) occ(28,6,7) occ(29,6,1) occ(34,6,4) occ(50,6,2) occ(56,6,3) occ(60,6,5) occ(6,7,5) occ(10,7,1) occ(24,7,8) occ(31,7,3) occ(32,7,6) occ(35,7,7) occ(52,7,4) occ(4,8,7) occ(8,8,3) occ(26,8,6) occ(30,8,8) occ(33,8,5) occ(54,8,2) occ(58,8,4)
Optimization: -39
Answer: 14
occ(1,3,7) occ(1,2,5) occ(1,5,3) occ(1,7,2) occ(2,6,8) occ(3,2,8) coverage(45) occ(5,1,6) occ(36,1,4) occ(9,2,3) occ(10,2,6) occ(23,2,4) occ(32,2,1) occ(38,2,2) occ(7,3,5) occ(8,3,4) occ(11,3,1) occ(12,3,8) occ(21,3,2) occ(34,3,3) occ(4,4,7) occ(14,4,6) occ(25,4,5) occ(30,4,2) occ(35,4,8) occ(40,4,1) occ(6,5,5) occ(13,5,2) occ(18,5,7) occ(19,5,1) occ(33,5,6) occ(41,5,4) occ(16,6,5) occ(17,6,3) occ(27,6,6) occ(28,6,1) occ(37,6,7) occ(42,6,2) occ(46,6,4) occ(15,7,1) occ(20,7,8) occ(24,7,4) occ(31,7,7) occ(39,7,5) occ(43,7,3) occ(48,7,6) occ(22,8,6) occ(26,8,2) occ(29,8,5) occ(44,8,3) occ(50,8,8)
Optimization: -45
Answer: 15
occ(1,3,7) occ(1,2,5) occ(1,5,3) occ(1,7,2) occ(2,6,8) occ(3,2,8) coverage(55) occ(22,1,3) occ(25,1,6) occ(26,1,1) occ(29,1,4) occ(42,1,7) occ(50,1,5) occ(20,2,1) occ(23,2,4) occ(28,2,3) occ(31,2,2) occ(46,2,6) occ(52,2,7) occ(14,3,3) occ(24,3,2) occ(27,3,5) occ(40,3,6) occ(44,3,8) occ(48,3,4) occ(5,4,7) occ(18,4,2) occ(21,4,5) occ(30,4,4) occ(33,4,1) occ(37,4,3) occ(47,4,8) occ(54,4,6) occ(12,5,2) occ(16,5,4) occ(38,5,7) occ(39,5,1) occ(43,5,5) occ(49,5,6) occ(53,5,8) occ(7,6,6) occ(13,6,1) occ(19,6,4) occ(32,6,5) occ(35,6,2) occ(41,6,3) occ(45,6,7) occ(6,7,5) occ(9,7,4) occ(10,7,1) occ(15,7,3) occ(36,7,8) occ(51,7,7) occ(4,8,7) occ(8,8,3) occ(11,8,2) occ(17,8,5) occ(34,8,6)
Optimization: -55
Answer: 16
occ(1,3,7) occ(1,2,5) occ(1,5,3) occ(1,7,2) occ(2,6,8) occ(3,2,8) coverage(56) occ(22,1,3) occ(29,1,4) occ(42,1,7) occ(50,1,5) occ(53,1,6) occ(54,1,1) occ(57,1,2) occ(20,2,1) occ(27,2,6) occ(31,2,2) occ(49,2,7) occ(52,2,3) occ(55,2,4) occ(14,3,3) occ(24,3,2) occ(40,3,6) occ(44,3,8) occ(48,3,4) occ(51,3,5) occ(59,3,1) occ(5,4,7) occ(18,4,2) occ(25,4,5) occ(33,4,1) occ(37,4,3) occ(46,4,6) occ(47,4,8) occ(12,5,2) occ(16,5,4) occ(21,5,6) occ(26,5,1) occ(38,5,7) occ(39,5,5) occ(7,6,6) occ(13,6,1) occ(23,6,4) occ(28,6,3) occ(32,6,5) occ(35,6,2) occ(45,6,7) occ(6,7,5) occ(9,7,4) occ(10,7,1) occ(15,7,3) occ(19,7,7) occ(36,7,8) occ(41,7,6) occ(4,8,7) occ(8,8,3) occ(11,8,2) occ(17,8,5) occ(30,8,4) occ(34,8,6) occ(43,8,8)
Optimization: -56
Answer: 17
occ(1,3,7) occ(1,2,5) occ(1,5,3) occ(1,7,2) occ(2,6,8) occ(3,2,8) coverage(57) occ(22,1,3) occ(29,1,4) occ(42,1,7) occ(50,1,5) occ(53,1,6) occ(56,1,2) occ(20,2,1) occ(27,2,6) occ(31,2,2) occ(49,2,7) occ(52,2,3) occ(55,2,4) occ(14,3,3) occ(24,3,2) occ(40,3,6) occ(44,3,8) occ(48,3,4) occ(51,3,5) occ(54,3,1) occ(5,4,7) occ(18,4,2) occ(25,4,5) occ(33,4,1) occ(37,4,3) occ(46,4,6) occ(47,4,8) occ(12,5,2) occ(16,5,4) occ(21,5,6) occ(26,5,1) occ(38,5,7) occ(39,5,5) occ(7,6,6) occ(13,6,1) occ(23,6,4) occ(28,6,3) occ(32,6,5) occ(35,6,2) occ(45,6,7) occ(6,7,5) occ(9,7,4) occ(10,7,1) occ(15,7,3) occ(19,7,7) occ(36,7,8) occ(41,7,6) occ(4,8,7) occ(8,8,3) occ(11,8,2) occ(17,8,5) occ(30,8,4) occ(34,8,6) occ(43,8,8)
Optimization: -57
Answer: 18
occ(1,3,7) occ(1,2,5) occ(1,5,3) occ(1,7,2) occ(2,6,8) occ(3,2,8) coverage(58) occ(5,1,6) occ(11,1,1) occ(25,1,4) occ(30,1,7) occ(33,1,2) occ(47,1,3) occ(51,1,5) occ(9,2,3) occ(23,2,6) occ(26,2,4) occ(27,2,2) occ(45,2,1) occ(53,2,7) occ(7,3,5) occ(13,3,2) occ(28,3,6) occ(31,3,3) occ(32,3,8) occ(35,3,1) occ(49,3,4) occ(17,4,3) occ(21,4,7) occ(24,4,5) occ(29,4,1) occ(38,4,6) occ(43,4,2) occ(55,4,8) occ(15,5,1) occ(19,5,5) occ(34,5,7) occ(37,5,2) occ(40,5,8) occ(57,5,6) occ(8,6,7) occ(16,6,3) occ(22,6,4) occ(36,6,5) occ(41,6,1) occ(46,6,6) occ(54,6,2) occ(6,7,5) occ(12,7,6) occ(18,7,1) occ(39,7,3) occ(42,7,7) occ(48,7,8) occ(52,7,4) occ(4,8,7) occ(10,8,8) occ(14,8,4) occ(20,8,3) occ(44,8,5) occ(50,8,6) occ(56,8,1)
Optimization: -58
Answer: 19
occ(1,3,7) occ(1,2,5) occ(1,5,3) occ(1,7,2) occ(2,6,8) occ(3,2,8) coverage(59) occ(5,1,6) occ(31,1,5) occ(34,1,7) occ(35,1,3) occ(40,1,4) occ(41,1,2) occ(9,2,3) occ(29,2,7) occ(30,2,4) occ(37,2,1) occ(38,2,6) occ(42,2,2) occ(7,3,5) occ(32,3,6) occ(33,3,4) occ(36,3,8) occ(39,3,3) occ(43,3,1) occ(48,3,2) occ(4,4,7) occ(11,4,2) occ(22,4,6) occ(27,4,8) occ(28,4,5) occ(44,4,3) occ(50,4,4) occ(6,5,5) occ(20,5,8) occ(26,5,7) occ(45,5,2) occ(46,5,1) occ(52,5,6) occ(53,5,4) occ(13,6,1) occ(14,6,6) occ(17,6,3) occ(24,6,5) occ(25,6,7) occ(51,6,2) occ(54,6,4) occ(8,7,4) occ(12,7,8) occ(18,7,7) occ(21,7,6) occ(47,7,3) occ(55,7,5) occ(58,7,1) occ(10,8,6) occ(15,8,2) occ(16,8,5) occ(19,8,4) occ(23,8,8) occ(49,8,1) occ(56,8,3) occ(57,8,7)
Optimization: -59
Answer: 20
occ(1,3,7) occ(1,2,5) occ(1,5,3) occ(1,7,2) occ(2,6,8) occ(3,2,8) coverage(60) occ(24,1,4) occ(29,1,2) occ(34,1,3) occ(38,1,5) occ(39,1,1) occ(59,1,7) occ(20,2,7) occ(26,2,2) occ(31,2,4) occ(32,2,1) occ(41,2,3) occ(55,2,6) occ(22,3,5) occ(27,3,1) occ(30,3,3) occ(36,3,4) occ(37,3,2) occ(40,3,6) occ(57,3,8) occ(5,4,7) occ(15,4,2) occ(18,4,6) occ(28,4,1) occ(33,4,3) occ(42,4,8) occ(43,4,4) occ(53,4,5) occ(7,5,5) occ(8,5,6) occ(16,5,8) occ(17,5,4) occ(25,5,2) occ(35,5,1) occ(50,5,7) occ(13,6,1) occ(14,6,6) occ(19,6,2) occ(44,6,7) occ(45,6,3) occ(51,6,4) occ(56,6,5) occ(6,7,5) occ(9,7,4) occ(10,7,7) occ(23,7,3) occ(47,7,1) occ(48,7,6) occ(52,7,8) occ(4,8,7) occ(11,8,2) occ(12,8,5) occ(21,8,1) occ(46,8,8) occ(49,8,3) occ(54,8,6) occ(58,8,4)
Optimization: -60
Answer: 21
occ(1,3,7) occ(1,2,5) occ(1,5,3) occ(1,7,2) occ(2,6,8) occ(3,2,8) coverage(61) occ(5,1,6) occ(9,1,4) occ(27,1,7) occ(30,1,1) occ(31,1,5) occ(36,1,2) occ(46,1,3) occ(11,2,6) occ(19,2,4) occ(32,2,3) occ(33,2,7) occ(42,2,2) occ(48,2,1) occ(7,3,5) occ(25,3,8) occ(28,3,2) occ(29,3,6) occ(34,3,1) occ(38,3,3) occ(44,3,4) occ(13,4,7) occ(17,4,3) occ(21,4,5) occ(22,4,8) occ(26,4,4) occ(35,4,6) occ(40,4,1) occ(50,4,2) occ(12,5,2) occ(15,5,5) occ(23,5,7) occ(24,5,6) occ(37,5,4) occ(45,5,8) occ(59,5,1) occ(14,6,4) occ(20,6,7) occ(47,6,6) occ(52,6,1) occ(53,6,5) occ(57,6,3) occ(58,6,2) occ(6,7,5) occ(10,7,1) occ(16,7,6) occ(39,7,3) occ(43,7,7) occ(49,7,8) occ(56,7,4) occ(4,8,7) occ(8,8,3) occ(18,8,8) occ(41,8,5) occ(51,8,6) occ(54,8,2) occ(55,8,4) occ(60,8,1)
Optimization: -61
*** Info : (clingo): INTERRUPTED by signal!
SATISFIABLE

TIME LIMIT   : 1
Models       : 21+
  Optimum    : unknown
Optimization : -61
Calls        : 1
Time         : 300.000s (Solving: 299.68s 1st Model: 0.00s Unsat: 0.00s)
CPU Time     : 300.000s
